p cnf 150 225
1 58 0
1 105 0
1 54 0
2 144 0
2 96 0
2 138 0
3 37 0
3 100 0
3 140 0
4 108 0
4 87 0
4 65 0
5 57 0
5 142 0
5 13 0
6 92 0
6 98 0
6 86 0
7 121 0
7 64 0
7 113 0
8 47 0
8 48 0
8 75 0
9 91 0
9 120 0
9 61 0
10 101 0
10 52 0
10 61 0
11 79 0
11 73 0
11 72 0
12 46 0
12 30 0
12 135 0
13 17 0
13 20 0
14 64 0
14 90 0
14 72 0
15 69 0
15 92 0
15 19 0
16 129 0
16 42 0
16 71 0
17 89 0
17 111 0
18 104 0
18 137 0
18 47 0
19 103 0
19 118 0
20 94 0
20 124 0
21 80 0
21 54 0
21 110 0
22 53 0
22 143 0
22 98 0
23 140 0
23 87 0
23 105 0
24 31 0
24 144 0
24 69 0
25 55 0
25 82 0
25 48 0
26 83 0
26 60 0
26 30 0
27 149 0
27 129 0
27 62 0
28 36 0
28 40 0
28 145 0
29 81 0
29 38 0
29 145 0
30 113 0
31 114 0
31 40 0
32 141 0
32 53 0
32 89 0
33 90 0
33 76 0
33 122 0
34 102 0
34 35 0
34 88 0
35 91 0
35 105 0
36 103 0
36 110 0
37 45 0
37 110 0
38 127 0
38 39 0
39 88 0
39 99 0
40 75 0
41 84 0
41 43 0
41 117 0
42 125 0
42 62 0
43 122 0
43 100 0
44 63 0
44 103 0
44 108 0
45 73 0
45 134 0
46 121 0
46 80 0
47 81 0
48 74 0
49 50 0
49 123 0
49 114 0
50 109 0
50 96 0
51 80 0
51 97 0
51 91 0
52 136 0
52 137 0
53 147 0
54 67 0
55 132 0
55 150 0
56 79 0
56 131 0
56 93 0
57 109 0
57 117 0
58 63 0
58 111 0
59 115 0
59 107 0
59 66 0
60 69 0
60 127 0
61 129 0
62 128 0
63 130 0
64 100 0
65 93 0
65 142 0
66 133 0
66 92 0
67 79 0
67 126 0
68 115 0
68 131 0
68 123 0
70 73 0
70 78 0
70 130 0
71 125 0
71 116 0
72 101 0
74 104 0
74 124 0
75 113 0
76 145 0
76 119 0
77 119 0
77 125 0
77 144 0
78 146 0
78 141 0
81 89 0
82 149 0
82 139 0
83 85 0
83 102 0
84 111 0
84 120 0
85 104 0
85 136 0
86 128 0
86 126 0
87 138 0
88 133 0
90 138 0
93 147 0
94 98 0
94 147 0
95 139 0
95 118 0
95 106 0
96 112 0
97 116 0
97 135 0
99 137 0
99 114 0
101 150 0
102 112 0
106 115 0
106 130 0
107 128 0
107 131 0
108 140 0
109 139 0
112 132 0
116 150 0
117 124 0
118 148 0
119 146 0
120 149 0
121 143 0
122 126 0
123 148 0
127 146 0
132 135 0
133 134 0
134 143 0
136 142 0
141 148 0
g -91